letting n_nurses=25
letting n_days=7
letting n_shift_types=4
letting max_covers=12
letting t_covers=61
letting covers=[1,0,0,0,0,10,8,0,1,3,8,0,12,1,5,0,0,7,5,0,0,0,0,0,0,0,0,0]
letting prefes=[1,1,4,2,4,4,4,2,1,1,4,4,4,4,4,2,4,1,4,4,4,4,4,2,1,1,4,2,4,4,4,2,4,4,4,2,1,1,2,4,4,4,4,2,1,3,4,2,4,4,4,2,4,4,4,2,4,4,4,2,4,1,4,1,1,1,4,4,4,1,4,1,1,1,4,4,4,1,4,1,4,4,4,2,4,1,4,2,4,1,4,2,1,1,2,4,4,1,4,2,1,1,4,2,4,1,4,2,4,1,4,2,1,1,4,2,4,1,4,2,1,1,4,4,4,1,4,2,4,1,4,4,4,1,4,2,1,1,4,2,1,1,4,2,4,1,4,2,1,1,4,3,4,1,4,2,1,3,4,4,4,1,4,2,1,1,4,2,1,1,1,2,1,1,4,2,4,3,2,4,1,1,4,2,1,3,4,2,1,1,4,2,1,1,1,2,4,4,4,2,4,1,4,1,1,3,4,4,4,1,4,1,1,1,4,4,4,1,4,1,4,4,4,2,1,1,4,2,4,4,4,2,1,1,4,4,4,4,4,2,1,1,4,4,4,4,4,2,1,1,4,2,1,1,1,2,4,1,1,1,1,1,4,4,4,1,1,1,1,1,4,4,4,1,1,1,1,1,1,2,1,1,4,2,4,1,4,2,1,1,4,3,4,1,4,2,1,1,4,4,4,1,4,2,1,1,4,2,1,1,1,2,4,1,4,2,1,1,4,3,4,1,4,2,2,1,4,4,4,1,4,2,1,1,1,2,1,4,4,1,4,1,4,2,1,1,4,3,4,1,4,2,1,1,4,4,4,1,4,2,1,4,4,1,4,1,4,1,4,1,4,2,1,1,4,4,4,1,4,2,1,1,4,4,4,1,4,2,4,1,4,1,1,1,4,2,4,4,4,2,4,1,4,4,4,4,4,2,1,1,1,4,4,4,4,2,1,1,4,2,1,1,1,2,4,1,4,2,1,1,4,4,4,1,4,2,1,1,1,4,4,1,4,2,1,1,1,2,1,4,1,2,4,4,1,1,1,3,4,4,4,4,1,1,1,1,1,4,4,4,1,1,1,4,1,2,1,1,4,2,4,1,4,2,1,1,2,3,4,1,4,2,1,1,4,2,4,1,4,2,1,1,4,2,1,1,4,1,4,1,4,1,1,1,4,4,4,1,4,1,1,1,4,4,4,1,4,1,1,1,4,1,1,1,4,1,1,1,4,2,4,1,4,4,1,1,4,2,4,1,1,4,1,1,4,2,1,1,4,1,1,1,4,2,1,1,1,2,1,3,4,4,1,1,1,2,1,3,4,4,1,1,1,2,1,1,4,2,1,1,4,2,1,1,1,2,1,3,4,4,1,1,1,2,1,1,4,4,1,1,1,2,1,1,4,2,1,1,4,1,4,1,4,2,1,1,2,4,4,1,4,2,1,3,4,2,4,1,4,2,1,1,4,1,1,1,4,2,1,1,1,2,4,1,4,4,1,1,1,2,1,1,1,4,1,1,1,2,1,1,4,2,1,1,4,2,4,1,4,2,4,1,4,4,4,1,4,2,4,1,4,4,4,1,4,2,1,1,4,2]
letting ub =  313
